p cnf 109 518
6 0
11 0
16 0
21 0
12 0
17 0
22 0
18 0
23 0
24 0
-6 -12 11 0
-6 -17 16 0
-6 -22 21 0
-11 -8 6 0
-11 -18 16 0
-11 -23 21 0
-16 -9 6 0
-16 -14 11 0
-16 -24 21 0
-21 -10 6 0
-21 -15 11 0
-21 -20 16 0
-2 -11 12 0
-2 -16 17 0
-2 -21 22 0
-12 -3 2 0
-12 -18 17 0
-12 -23 22 0
-17 -4 2 0
-17 -14 12 0
-17 -24 22 0
-22 -5 2 0
-22 -15 12 0
-22 -20 17 0
-3 -6 8 0
-3 -16 18 0
-3 -21 23 0
-8 -2 3 0
-8 -17 18 0
-8 -22 23 0
-18 -4 3 0
-18 -9 8 0
-18 -24 23 0
-23 -5 3 0
-23 -10 8 0
-23 -20 18 0
-4 -6 9 0
-4 -11 14 0
-4 -21 24 0
-9 -2 4 0
-9 -12 14 0
-9 -22 24 0
-14 -3 4 0
-14 -8 9 0
-14 -23 24 0
-24 -5 4 0
-24 -10 9 0
-24 -15 14 0
-5 -6 10 0
-5 -11 15 0
-5 -16 20 0
-10 -2 5 0
-10 -12 15 0
-10 -17 20 0
-15 -3 5 0
-15 -8 10 0
-15 -18 20 0
-20 -4 5 0
-20 -9 10 0
-20 -14 15 0
-31 -37 36 0
-31 -42 41 0
-31 -47 46 0
-36 -33 31 0
-36 -43 41 0
-36 -48 46 0
-41 -34 31 0
-41 -39 36 0
-41 -49 46 0
-46 -35 31 0
-46 -40 36 0
-46 -45 41 0
-27 -36 37 0
-27 -41 42 0
-27 -46 47 0
-37 -28 27 0
-37 -43 42 0
-37 -48 47 0
-42 -29 27 0
-42 -39 37 0
-42 -49 47 0
-47 -30 27 0
-47 -40 37 0
-47 -45 42 0
-28 -31 33 0
-28 -41 43 0
-28 -46 48 0
-33 -27 28 0
-33 -42 43 0
-33 -47 48 0
-43 -29 28 0
-43 -34 33 0
-43 -49 48 0
-48 -30 28 0
-48 -35 33 0
-48 -45 43 0
-29 -31 34 0
-29 -36 39 0
-29 -46 49 0
-34 -27 29 0
-34 -37 39 0
-34 -47 49 0
-39 -28 29 0
-39 -33 34 0
-39 -48 49 0
-49 -30 29 0
-49 -35 34 0
-49 -40 39 0
-30 -31 35 0
-30 -36 40 0
-30 -41 45 0
-35 -27 30 0
-35 -37 40 0
-35 -42 45 0
-40 -28 30 0
-40 -33 35 0
-40 -43 45 0
-45 -29 30 0
-45 -34 35 0
-45 -39 40 0
-56 -62 61 0
-56 -67 66 0
-56 -72 71 0
-61 -58 56 0
-61 -68 66 0
-61 -73 71 0
-66 -59 56 0
-66 -64 61 0
-66 -74 71 0
-71 -60 56 0
-71 -65 61 0
-71 -70 66 0
-52 -61 62 0
-52 -66 67 0
-52 -71 72 0
-62 -53 52 0
-62 -68 67 0
-62 -73 72 0
-67 -54 52 0
-67 -64 62 0
-67 -74 72 0
-72 -55 52 0
-72 -65 62 0
-72 -70 67 0
-53 -56 58 0
-53 -66 68 0
-53 -71 73 0
-58 -52 53 0
-58 -67 68 0
-58 -72 73 0
-68 -54 53 0
-68 -59 58 0
-68 -74 73 0
-73 -55 53 0
-73 -60 58 0
-73 -70 68 0
-54 -56 59 0
-54 -61 64 0
-54 -71 74 0
-59 -52 54 0
-59 -62 64 0
-59 -72 74 0
-64 -53 54 0
-64 -58 59 0
-64 -73 74 0
-74 -55 54 0
-74 -60 59 0
-74 -65 64 0
-55 -56 60 0
-55 -61 65 0
-55 -66 70 0
-60 -52 55 0
-60 -62 65 0
-60 -67 70 0
-65 -53 55 0
-65 -58 60 0
-65 -68 70 0
-70 -54 55 0
-70 -59 60 0
-70 -64 65 0
-81 -87 86 0
-81 -92 91 0
-81 -97 96 0
-86 -83 81 0
-86 -93 91 0
-86 -98 96 0
-91 -84 81 0
-91 -89 86 0
-91 -99 96 0
-96 -85 81 0
-96 -90 86 0
-96 -95 91 0
-77 -86 87 0
-77 -91 92 0
-77 -96 97 0
-87 -78 77 0
-87 -93 92 0
-87 -98 97 0
-92 -79 77 0
-92 -89 87 0
-92 -99 97 0
-97 -80 77 0
-97 -90 87 0
-97 -95 92 0
-78 -81 83 0
-78 -91 93 0
-78 -96 98 0
-83 -77 78 0
-83 -92 93 0
-83 -97 98 0
-93 -79 78 0
-93 -84 83 0
-93 -99 98 0
-98 -80 78 0
-98 -85 83 0
-98 -95 93 0
-79 -81 84 0
-79 -86 89 0
-79 -96 99 0
-84 -77 79 0
-84 -87 89 0
-84 -97 99 0
-89 -78 79 0
-89 -83 84 0
-89 -98 99 0
-99 -80 79 0
-99 -85 84 0
-99 -90 89 0
-80 -81 85 0
-80 -86 90 0
-80 -91 95 0
-85 -77 80 0
-85 -87 90 0
-85 -92 95 0
-90 -78 80 0
-90 -83 85 0
-90 -93 95 0
-95 -79 80 0
-95 -84 85 0
-95 -89 90 0
6 2 0
-6 -2 0
11 3 0
-11 -3 0
16 4 0
-16 -4 0
21 5 0
-21 -5 0
2 6 0
-2 -6 0
12 8 0
-12 -8 0
17 9 0
-17 -9 0
22 10 0
-22 -10 0
3 11 0
-3 -11 0
8 12 0
-8 -12 0
18 14 0
-18 -14 0
23 15 0
-23 -15 0
4 16 0
-4 -16 0
9 17 0
-9 -17 0
14 18 0
-14 -18 0
24 20 0
-24 -20 0
5 21 0
-5 -21 0
10 22 0
-10 -22 0
15 23 0
-15 -23 0
20 24 0
-20 -24 0
31 27 0
-31 -27 0
36 28 0
-36 -28 0
41 29 0
-41 -29 0
46 30 0
-46 -30 0
27 31 0
-27 -31 0
37 33 0
-37 -33 0
42 34 0
-42 -34 0
47 35 0
-47 -35 0
28 36 0
-28 -36 0
33 37 0
-33 -37 0
43 39 0
-43 -39 0
48 40 0
-48 -40 0
29 41 0
-29 -41 0
34 42 0
-34 -42 0
39 43 0
-39 -43 0
49 45 0
-49 -45 0
30 46 0
-30 -46 0
35 47 0
-35 -47 0
40 48 0
-40 -48 0
45 49 0
-45 -49 0
56 52 0
-56 -52 0
61 53 0
-61 -53 0
66 54 0
-66 -54 0
71 55 0
-71 -55 0
52 56 0
-52 -56 0
62 58 0
-62 -58 0
67 59 0
-67 -59 0
72 60 0
-72 -60 0
53 61 0
-53 -61 0
58 62 0
-58 -62 0
68 64 0
-68 -64 0
73 65 0
-73 -65 0
54 66 0
-54 -66 0
59 67 0
-59 -67 0
64 68 0
-64 -68 0
74 70 0
-74 -70 0
55 71 0
-55 -71 0
60 72 0
-60 -72 0
65 73 0
-65 -73 0
70 74 0
-70 -74 0
81 77 0
-81 -77 0
86 78 0
-86 -78 0
91 79 0
-91 -79 0
96 80 0
-96 -80 0
77 81 0
-77 -81 0
87 83 0
-87 -83 0
92 84 0
-92 -84 0
97 85 0
-97 -85 0
78 86 0
-78 -86 0
83 87 0
-83 -87 0
93 89 0
-93 -89 0
98 90 0
-98 -90 0
79 91 0
-79 -91 0
84 92 0
-84 -92 0
89 93 0
-89 -93 0
99 95 0
-99 -95 0
80 96 0
-80 -96 0
85 97 0
-85 -97 0
90 98 0
-90 -98 0
95 99 0
-95 -99 0
-101 -104 0
-101 -107 0
-104 -107 0
-102 -105 0
-102 -108 0
-105 -108 0
-103 -106 0
-103 -109 0
-106 -109 0
101 104 107 0
102 105 108 0
103 106 109 0
-101 -6 -31 0
-101 6 31 0
-104 -31 -56 0
-104 31 56 0
-107 -56 -81 0
-107 56 81 0
-102 -11 -36 0
-102 11 36 0
-105 -36 -61 0
-105 36 61 0
-108 -61 -86 0
-108 61 86 0
-103 -16 -41 0
-103 16 41 0
-106 -41 -66 0
-106 41 66 0
-109 -66 -91 0
-109 66 91 0
-6 31 101 0
6 -31 101 0
-11 36 102 0
11 -36 102 0
-16 41 103 0
16 -41 103 0
-21 46 0
21 -46 0
-12 37 0
12 -37 0
-17 42 0
17 -42 0
-22 47 0
22 -47 0
-18 43 0
18 -43 0
-23 48 0
23 -48 0
-24 49 0
24 -49 0
-31 56 104 0
31 -56 104 0
-36 61 105 0
36 -61 105 0
-41 66 106 0
41 -66 106 0
-46 71 0
46 -71 0
-37 62 0
37 -62 0
-42 67 0
42 -67 0
-47 72 0
47 -72 0
-43 68 0
43 -68 0
-48 73 0
48 -73 0
-49 74 0
49 -74 0
-56 81 107 0
56 -81 107 0
-61 86 108 0
61 -86 108 0
-66 91 109 0
66 -91 109 0
-71 96 0
71 -96 0
-62 87 0
62 -87 0
-67 92 0
67 -92 0
-72 97 0
72 -97 0
-68 93 0
68 -93 0
-73 98 0
73 -98 0
-74 99 0
74 -99 0
-101 -102 0
-101 -103 0
-102 -101 0
-102 -103 0
-103 -101 0
-103 -102 0
-104 -105 0
-104 -106 0
-105 -104 0
-105 -106 0
-106 -104 0
-106 -105 0
-107 -108 0
-107 -109 0
-108 -107 0
-108 -109 0
-109 -107 0
-109 -108 0